RT is False
Default write of storage_offers_DA.csv just to have a file (but constraint should be inactive)
Reading model...
...model read.
creating competitive generators file...
...competitive generators recorded.
Loading data...
.. day-ahead data with real-time VRE data read.
Compiling instance...
...instance created.
Creating Offer Mitigation (model will solve as dispatch if TRUE)...
Solving...

Welcome to IBM(R) ILOG(R) CPLEX(R) Interactive Optimizer 12.9.0.0
  with Simplex, Mixed Integer & Barrier Optimizers
5725-A06 5725-A29 5724-Y48 5724-Y49 5724-Y54 5724-Y55 5655-Y21
Copyright IBM Corp. 1988, 2019.  All Rights Reserved.

Type 'help' for a list of available commands.
Type 'help' followed by a command name for more
information on commands.

CPLEX> Logfile 'cplex.log' closed.
Logfile 'C:\Users\llavin\Desktop\test826\logs\tmp4y6q4u01.cplex.log' open.
CPLEX> New value for parallel optimization mode: -1
CPLEX> New value for mixed integer optimality gap tolerance: 0.01
CPLEX> New value for integrality tolerance: 1e-09
CPLEX> New value for feasibility tolerance: 0.01
CPLEX> New value for deterministic time limit in ticks: 75000
CPLEX> Problem 'C:\Users\llavin\Desktop\test826\logs\tmpdg_wuqpi.pyomo.lp' read.
Read time = 0.06 sec. (3.04 ticks)
CPLEX> Problem name         : C:\Users\llavin\Desktop\test826\logs\tmpdg_wuqpi.pyomo.lp
Objective sense      : Minimize
Variables            :   26081  [Nneg: 1,  Box: 21616,  Free: 4464]
Objective nonzeros   :    2496
Linear constraints   :   27515  [Less: 14006,  Greater: 4416,  Equal: 9093]
  Nonzeros           :   89171
  RHS nonzeros       :   12271

Variables            : Min LB: -5000.000        Max UB: 1000000.       
Objective nonzeros   : Min   : 15.73158         Max   : 124.0997       
Linear constraints   :
  Nonzeros           : Min   : 0.8500000        Max   : 3000.000       
  RHS nonzeros       : Min   : 0.07500000       Max   : 5000.000       
CPLEX> CPXPARAM_Parallel                                -1
CPXPARAM_Simplex_Tolerances_Feasibility          0.01
CPXPARAM_DetTimeLimit                            75000
CPXPARAM_MIP_Tolerances_MIPGap                   0.01
CPXPARAM_MIP_Tolerances_Integrality              1.0000000000000001e-09
Parallel mode: opportunistic, using up to 32 threads for concurrent optimization.
Tried aggregator 1 time.
LP Presolve eliminated 21401 rows and 15511 columns.
Aggregator did 727 substitutions.
Reduced LP has 5387 rows, 9843 columns, and 31754 nonzeros.
Presolve time = 0.06 sec. (30.16 ticks)
Symmetry aggregator did 5563 additional substitutions.

Iteration log . . .
Iteration:     1   Dual objective     =             0.000000
Perturbation started.
Iteration:   101   Dual objective     =             0.000000
Iteration:   328   Dual objective     =             3.942611
Iteration:   573   Dual objective     =             4.748494
Iteration:   836   Dual objective     =             5.045902
Iteration:  1065   Dual objective     =             5.154396
Iteration:  1329   Dual objective     =             5.225699
Iteration:  1587   Dual objective     =             5.260595
Iteration:  1822   Dual objective     =          8852.762087
Iteration:  2037   Dual objective     =        160589.803520
Iteration:  2246   Dual objective     =        198790.553980
Iteration:  2449   Dual objective     =        205925.984890
Iteration:  2704   Dual objective     =        207633.716824
Removing perturbation.
Using devex.

Primal simplex solved model.


Primal simplex - Optimal:  Objective =  2.0774461800e+05
Solution time =    0.19 sec.  Iterations = 1605 (1042)
Deterministic time = 77.40 ticks  (411.68 ticks/sec)

CPLEX> Solution written to file 'C:\Users\llavin\Desktop\test826\logs\tmpn2v2ukpp.cplex.sol'.
CPLEX> Exporting results... 
...storage offer mitigation file created
Converting model to MPEC...
...converted
NOTE: initial MIP solve with only storage competitive to get feasible solution
Solving...

Welcome to IBM(R) ILOG(R) CPLEX(R) Interactive Optimizer 12.9.0.0
  with Simplex, Mixed Integer & Barrier Optimizers
5725-A06 5725-A29 5724-Y48 5724-Y49 5724-Y54 5724-Y55 5655-Y21
Copyright IBM Corp. 1988, 2019.  All Rights Reserved.

Type 'help' for a list of available commands.
Type 'help' followed by a command name for more
information on commands.

CPLEX> Logfile 'cplex.log' closed.
Logfile 'C:\Users\llavin\Desktop\test826\logs\tmpw1syfogd.cplex.log' open.
CPLEX> New value for parallel optimization mode: -1
CPLEX> New value for mixed integer optimality gap tolerance: 0.01
CPLEX> New value for integrality tolerance: 1e-09
CPLEX> New value for feasibility tolerance: 0.01
CPLEX> New value for deterministic time limit in ticks: 75000
CPLEX> Problem 'C:\Users\llavin\Desktop\test826\logs\tmpb1azu561.pyomo.lp' read.
Read time = 0.23 sec. (14.78 ticks)
CPLEX> Problem name         : C:\Users\llavin\Desktop\test826\logs\tmpb1azu561.pyomo.lp
Objective sense      : Maximize
Variables            :   53805  [Nneg: 1,  Box: 22000,  Free: 4464,
                                 Binary: 27340]
Objective nonzeros   :    9078
Linear constraints   :  123205  [Less: 41346,  Greater: 59096,  Equal: 22763]
  Nonzeros           :  291705
  RHS nonzeros       :   67491

Variables            : Min LB: -5000.000        Max UB: 1000000.       
Objective nonzeros   : Min   : 0.07500000       Max   : 2500.000       
Linear constraints   :
  Nonzeros           : Min   : 0.07500000       Max   : 1000000.       
  RHS nonzeros       : Min   : 0.07500000       Max   : 1000000.       
CPLEX> CPXPARAM_Parallel                                -1
CPXPARAM_Simplex_Tolerances_Feasibility          0.01
CPXPARAM_DetTimeLimit                            75000
CPXPARAM_MIP_Tolerances_MIPGap                   0.01
CPXPARAM_MIP_Tolerances_Integrality              1.0000000000000001e-09
Tried aggregator 3 times.
MIP Presolve eliminated 88726 rows and 19074 columns.
MIP Presolve added 3347 rows and 0 columns.
MIP Presolve modified 24874 coefficients.
Aggregator did 12948 substitutions.
Reduced MIP has 24878 rows, 21227 columns, and 70940 nonzeros.
Reduced MIP has 8399 binaries, 0 generals, 0 SOSs, and 0 indicators.
Presolve time = 0.30 sec. (173.35 ticks)
Probing fixed 370 vars, tightened 2851 bounds.
Probing time = 1.20 sec. (874.71 ticks)
Tried aggregator 2 times.
MIP Presolve eliminated 834 rows and 742 columns.
MIP Presolve modified 2234 coefficients.
Aggregator did 44 substitutions.
Reduced MIP has 24000 rows, 20441 columns, and 68398 nonzeros.
Reduced MIP has 8028 binaries, 0 generals, 0 SOSs, and 0 indicators.
Presolve time = 0.11 sec. (66.21 ticks)
Probing time = 0.03 sec. (15.46 ticks)
Clique table members: 6393.
MIP emphasis: balance optimality and feasibility.
MIP search method: dynamic search.
Parallel mode: opportunistic, using up to 32 threads.
Root relaxation solution time = 0.42 sec. (535.87 ticks)

        Nodes                                         Cuts/
   Node  Left     Objective  IInf  Best Integer    Best Bound    ItCnt     Gap

      0     0        0.0000   760                      0.0000     3605         
*     0+    0                            0.0000        0.0000             0.00%
      0     0        cutoff              0.0000        0.0000     3605    0.00%
Elapsed time = 3.03 sec. (2201.47 ticks, tree = 0.01 MB, solutions = 1)

Root node processing (before b&c):
  Real time             =    3.05 sec. (2203.42 ticks)
Parallel b&c, 32 threads:
  Real time             =    0.00 sec. (0.00 ticks)
  Sync time (average)   =    0.00 sec.
  Wait time (average)   =    0.00 sec.
                          ------------
Total (root+branch&cut) =    3.05 sec. (2203.42 ticks)

Solution pool: 1 solution saved.

MIP - Integer optimal solution:  Objective =  5.7207216742e-09
Solution time =    3.08 sec.  Iterations = 3605  Nodes = 0
Deterministic time = 2203.57 ticks  (715.68 ticks/sec)

CPLEX> Incumbent solution written to file 'C:\Users\llavin\Desktop\test826\logs\tmpy2n173ca.cplex.sol'.
CPLEX> NOTE: no warmstart specified for MIP iteration, default behavior is true
NOTE: resolving with all competitive generators using storage-only solution to warmstart
Solving...

Welcome to IBM(R) ILOG(R) CPLEX(R) Interactive Optimizer 12.9.0.0
  with Simplex, Mixed Integer & Barrier Optimizers
5725-A06 5725-A29 5724-Y48 5724-Y49 5724-Y54 5724-Y55 5655-Y21
Copyright IBM Corp. 1988, 2019.  All Rights Reserved.

Type 'help' for a list of available commands.
Type 'help' followed by a command name for more
information on commands.

CPLEX> Logfile 'cplex.log' closed.
Logfile 'C:\Users\llavin\Desktop\test826\logs\tmpjkgnq6wt.cplex.log' open.
CPLEX> New value for parallel optimization mode: -1
CPLEX> New value for mixed integer optimality gap tolerance: 0.01
CPLEX> New value for integrality tolerance: 1e-09
CPLEX> New value for feasibility tolerance: 0.01
CPLEX> New value for deterministic time limit in ticks: 75000
CPLEX> Problem 'C:\Users\llavin\Desktop\test826\logs\tmp9t4l3b3f.pyomo.lp' read.
Read time = 0.25 sec. (14.81 ticks)
CPLEX> MIP start file 'C:\Users\llavin\Desktop\test826\logs\tmp63cxvj5t.cplex.mst' read.
CPLEX> Problem name         : C:\Users\llavin\Desktop\test826\logs\tmp9t4l3b3f.pyomo.lp
Objective sense      : Maximize
Variables            :   54525  [Nneg: 1,  Box: 22720,  Free: 4464,
                                 Binary: 27340]
Objective nonzeros   :    9774
Linear constraints   :  123205  [Less: 41346,  Greater: 59096,  Equal: 22763]
  Nonzeros           :  291705
  RHS nonzeros       :   67491

Variables            : Min LB: -5000.000        Max UB: 1000000.       
Objective nonzeros   : Min   : 0.07500000       Max   : 2500.000       
Linear constraints   :
  Nonzeros           : Min   : 0.07500000       Max   : 1000000.       
  RHS nonzeros       : Min   : 0.07500000       Max   : 1000000.       
CPLEX> CPXPARAM_Parallel                                -1
CPXPARAM_Simplex_Tolerances_Feasibility          0.01
CPXPARAM_DetTimeLimit                            75000
CPXPARAM_MIP_Tolerances_MIPGap                   0.01
CPXPARAM_MIP_Tolerances_Integrality              1.0000000000000001e-09
Warning:  No solution found from 1 MIP starts.
Retaining values of one MIP start for possible repair.
Tried aggregator 3 times.
MIP Presolve eliminated 88726 rows and 19794 columns.
MIP Presolve added 3347 rows and 0 columns.
MIP Presolve modified 24874 coefficients.
Aggregator did 12948 substitutions.
Reduced MIP has 24878 rows, 21227 columns, and 70940 nonzeros.
Reduced MIP has 8399 binaries, 0 generals, 0 SOSs, and 0 indicators.
Presolve time = 0.30 sec. (173.71 ticks)
Probing fixed 370 vars, tightened 2851 bounds.
Probing time = 1.17 sec. (874.71 ticks)
Tried aggregator 2 times.
MIP Presolve eliminated 834 rows and 742 columns.
MIP Presolve modified 2234 coefficients.
Aggregator did 44 substitutions.
Reduced MIP has 24000 rows, 20441 columns, and 68398 nonzeros.
Reduced MIP has 8028 binaries, 0 generals, 0 SOSs, and 0 indicators.
Presolve time = 0.11 sec. (66.22 ticks)
Probing time = 0.05 sec. (15.46 ticks)
Clique table members: 6393.
MIP emphasis: balance optimality and feasibility.
MIP search method: dynamic search.
Parallel mode: opportunistic, using up to 32 threads.
Root relaxation solution time = 0.44 sec. (575.17 ticks)

        Nodes                                         Cuts/
   Node  Left     Objective  IInf  Best Integer    Best Bound    ItCnt     Gap

      0     0    95772.3558   851                  95772.3558     3669         
      0     0    94341.0554   710                   Cuts: 605     3959         
      0     0    94171.0781   577                   Cuts: 422     4123         
      0     0    94170.5557   518                   Cuts: 195     4200         
      0     0    94170.5557   491                    Cuts: 80     4240         
      0     0    94170.5557   479                    Cuts: 69     4260         
      0     0    94170.5557   469                    Cuts: 42     4269         
      0     0    86496.1891   457                    Cuts: 29     4287         
      0     0    86496.1891   452                    Cuts: 36     4304         
      0     0    86496.1891   446                    Cuts: 24     4311         
Repair heuristic found nothing.
      0    12    82958.6531   428                  86482.6526     4325         
Elapsed time = 11.70 sec. (7102.46 ticks, tree = 0.02 MB, solutions = 0)
    971   253    81746.9388   377                  86480.1399     4752         
   1574   916    80955.4665   385                  86480.1399     5810         
   1966  1777    80953.5244   385                  86480.1399     9280         
   2719  2023    infeasible                        86480.1399    14714         
   3463  1861    59375.1085   364                  86480.1399    10440         
   4243  2218    78604.2683   346                  86480.1399    20164         
   5071  2659    58356.3596   320                  86480.1399    29052         
   5842  3688    66722.6547   303                  86480.1399    35673         
   6661  4193    61290.9197   288                  86480.1399    39584         
  10251  7564    65586.1741   285                  86480.1399    49184         
Elapsed time = 29.98 sec. (10204.43 ticks, tree = 66.15 MB, solutions = 0)
* 13092+ 8107                        58190.6879    86480.1399            48.62%
* 14521 11136      integral     0    66332.9274    86480.1399    53181   30.37%
* 16700  6502      integral     0    67487.7198    86480.1399    55866   28.14%
  19299  4130    86474.7435   372    67487.7198    86480.1399    59398   28.14%
  19652  3506        cutoff          67487.7198    86480.1399    61296   28.14%

Clique cuts applied:  9
Implied bound cuts applied:  21
Flow cuts applied:  451
Mixed integer rounding cuts applied:  24
Gomory fractional cuts applied:  28

Root node processing (before b&c):
  Real time             =   10.28 sec. (7058.34 ticks)
Parallel b&c, 32 threads:
  Real time             =   33.34 sec. (9028.27 ticks)
  Sync time (average)   =    0.31 sec.
  Wait time (average)   =    0.00 sec.
                          ------------
Total (root+branch&cut) =   43.63 sec. (16086.61 ticks)

Solution pool: 5 solutions saved.

MIP - Integer optimal solution:  Objective =  6.7487719780e+04
Solution time =   43.64 sec.  Iterations = 73153  Nodes = 19653
Deterministic time = 16086.76 ticks  (368.62 ticks/sec)

CPLEX> Incumbent solution written to file 'C:\Users\llavin\Desktop\test826\logs\tmphkp6o_85.cplex.sol'.
CPLEX> Exporting results... 
